
(set-logic ALL) 

(declare-datatype MyList ((Nil) (Cons (head Real) (tail MyList)) )) 
(declare-fun l0 () MyList) 
(declare-fun l1 () MyList) 
(declare-fun l2 () MyList) 
(declare-fun l3 () MyList) 
(declare-fun i0 () Real) 
(declare-fun i1 () Real) 
(assert (is-Cons Nil) )
(assert (is-Nil Nil) )
(assert (or (= l1 l2) (is-Cons Nil) (= l3 l3)) )
(assert (not (= l2 Nil)) )
(assert (= l2 Nil) )
(assert (or (is-Nil Nil) (is-Cons Nil) (is-Cons Nil) (is-Nil l1)) )
(assert (not (is-Cons l1)) )
(assert (= l2 Nil) )
(check-sat)
